(set-info :smt-lib-version 2.6)
(set-logic QF_NIA)
(set-info :source |
     Constraint systems stating that a matrix interpretation is
     compatible with a rewriting system (weakly compatible with
     all rules, strictly compatible with at least one).

     Contributed by Johannes Waldmann at HTKW Leipzig.
   |)
(set-info :category "crafted")
(set-info :status sat)
(declare-fun n0 () Int)
(assert (>= n0 0))
(declare-fun n1 () Int)
(assert (>= n1 0))
(declare-fun n2 () Int)
(assert (>= n2 0))
(declare-fun n3 () Int)
(assert (>= n3 0))
(declare-fun n4 () Int)
(assert (>= n4 0))
(declare-fun n5 () Int)
(assert (>= n5 0))
(declare-fun n6 () Int)
(assert (>= n6 0))
(declare-fun n7 () Int)
(assert (>= n7 0))
(declare-fun n8 () Int)
(assert (= n8 (* n7 n6)))
(declare-fun n9 () Int)
(assert (= n9 (+ n6 n8)))
(declare-fun n10 () Int)
(assert (= n10 (* n7 n7)))
(declare-fun n11 () Int)
(assert (= n11 (* n5 n4)))
(declare-fun n12 () Int)
(assert (= n12 (+ n4 n11)))
(declare-fun n13 () Int)
(assert (= n13 (* n5 n5)))
(declare-fun n14 () Int)
(assert (= n14 (* n5 n6)))
(declare-fun n15 () Int)
(assert (= n15 (+ n4 n14)))
(declare-fun n16 () Int)
(assert (= n16 (* n5 n7)))
(declare-fun n17 () Int)
(assert (= n17 (* n16 n4)))
(declare-fun n18 () Int)
(assert (= n18 (+ n15 n17)))
(declare-fun n19 () Int)
(assert (= n19 (* n16 n5)))
(declare-fun n20 () Int)
(assert (= n20 (* n13 n4)))
(declare-fun n21 () Int)
(assert (= n21 (+ n12 n20)))
(declare-fun n22 () Int)
(assert (= n22 (* n13 n5)))
(declare-fun n23 () Int)
(assert (= n23 (* n5 n9)))
(declare-fun n24 () Int)
(assert (= n24 (+ n4 n23)))
(declare-fun n25 () Int)
(assert (= n25 (* n5 n10)))
(declare-fun n26 () Int)
(assert (= n26 (* n10 n6)))
(declare-fun n27 () Int)
(assert (= n27 (+ n9 n26)))
(declare-fun n28 () Int)
(assert (= n28 (* n10 n7)))
(declare-fun n29 () Int)
(assert (= n29 (* n7 n18)))
(declare-fun n30 () Int)
(assert (= n30 (+ n6 n29)))
(declare-fun n31 () Int)
(assert (= n31 (* n7 n19)))
(declare-fun n32 () Int)
(assert (= n32 (* n10 n27)))
(declare-fun n33 () Int)
(assert (= n33 (+ n9 n32)))
(declare-fun n34 () Int)
(assert (= n34 (* n10 n28)))
(declare-fun n35 () Int)
(assert (= n35 (* n13 n9)))
(declare-fun n36 () Int)
(assert (= n36 (+ n12 n35)))
(declare-fun n37 () Int)
(assert (= n37 (* n13 n10)))
(declare-fun n38 () Int)
(assert (= n38 (* n16 n21)))
(declare-fun n39 () Int)
(assert (= n39 (+ n15 n38)))
(declare-fun n40 () Int)
(assert (= n40 (* n16 n22)))
(declare-fun n41 () Int)
(assert (= n41 (* n25 n6)))
(declare-fun n42 () Int)
(assert (= n42 (+ n24 n41)))
(declare-fun n43 () Int)
(assert (= n43 (* n25 n7)))
(declare-fun n44 () Int)
(assert (= n44 (* n1 n12)))
(declare-fun n45 () Int)
(assert (= n45 (+ n0 n44)))
(declare-fun n46 () Int)
(assert (= n46 (* n1 n13)))
(declare-fun n47 () Int)
(assert (= n47 (* n1 n30)))
(declare-fun n48 () Int)
(assert (= n48 (+ n0 n47)))
(declare-fun n49 () Int)
(assert (= n49 (* n1 n31)))
(declare-fun n50 () Int)
(assert (= n50 (* n7 n36)))
(declare-fun n51 () Int)
(assert (= n51 (+ n6 n50)))
(declare-fun n52 () Int)
(assert (= n52 (* n7 n37)))
(declare-fun n53 () Int)
(assert (= n53 (* n7 n42)))
(declare-fun n54 () Int)
(assert (= n54 (+ n6 n53)))
(declare-fun n55 () Int)
(assert (= n55 (* n7 n43)))
(declare-fun n56 () Int)
(assert (= n56 (* n37 n12)))
(declare-fun n57 () Int)
(assert (= n57 (+ n36 n56)))
(declare-fun n58 () Int)
(assert (= n58 (* n37 n13)))
(declare-fun n59 () Int)
(assert (= n59 (* n46 n6)))
(declare-fun n60 () Int)
(assert (= n60 (+ n45 n59)))
(declare-fun n61 () Int)
(assert (= n61 (* n46 n7)))
(declare-fun n62 () Int)
(assert (= n62 (* n1 n27)))
(declare-fun n63 () Int)
(assert (= n63 (+ n0 n62)))
(declare-fun n64 () Int)
(assert (= n64 (* n1 n28)))
(declare-fun n65 () Int)
(assert (= n65 (* n46 n12)))
(declare-fun n66 () Int)
(assert (= n66 (+ n45 n65)))
(declare-fun n67 () Int)
(assert (= n67 (* n46 n13)))
(declare-fun n68 () Int)
(assert (= n68 (* n61 n21)))
(declare-fun n69 () Int)
(assert (= n69 (+ n60 n68)))
(declare-fun n70 () Int)
(assert (= n70 (* n61 n22)))
(assert (>= n66 n69))
(assert (>= n67 n70))
(declare-fun n71 () Int)
(assert (= n71 (* n64 n15)))
(declare-fun n72 () Int)
(assert (= n72 (+ n63 n71)))
(declare-fun n73 () Int)
(assert (= n73 (* n64 n16)))
(assert (>= n48 n72))
(assert (>= n49 n73))
(declare-fun n74 () Int)
(assert (= n74 (* n1 n6)))
(declare-fun n75 () Int)
(assert (= n75 (+ n0 n74)))
(declare-fun n76 () Int)
(assert (= n76 (* n1 n7)))
(assert (>= n48 n75))
(assert (>= n49 n76))
(assert (>= n18 n27))
(assert (>= n19 n28))
(declare-fun n77 () Int)
(assert (= n77 (* n25 n4)))
(declare-fun n78 () Int)
(assert (= n78 (+ n24 n77)))
(declare-fun n79 () Int)
(assert (= n79 (* n25 n5)))
(assert (>= n78 n33))
(assert (>= n79 n34))
(declare-fun n80 () Int)
(assert (= n80 (* n13 n21)))
(declare-fun n81 () Int)
(assert (= n81 (+ n12 n80)))
(declare-fun n82 () Int)
(assert (= n82 (* n13 n22)))
(declare-fun n83 () Int)
(assert (= n83 (* n13 n39)))
(declare-fun n84 () Int)
(assert (= n84 (+ n12 n83)))
(declare-fun n85 () Int)
(assert (= n85 (* n13 n40)))
(assert (>= n81 n84))
(assert (>= n82 n85))
(declare-fun n86 () Int)
(assert (= n86 (* n13 n18)))
(declare-fun n87 () Int)
(assert (= n87 (+ n12 n86)))
(declare-fun n88 () Int)
(assert (= n88 (* n13 n19)))
(declare-fun n89 () Int)
(assert (= n89 (* n58 n6)))
(declare-fun n90 () Int)
(assert (= n90 (+ n57 n89)))
(declare-fun n91 () Int)
(assert (= n91 (* n58 n7)))
(assert (>= n87 n90))
(assert (>= n88 n91))
(declare-fun n92 () Int)
(assert (= n92 (* n52 n12)))
(declare-fun n93 () Int)
(assert (= n93 (+ n51 n92)))
(declare-fun n94 () Int)
(assert (= n94 (* n52 n13)))
(assert (>= n39 n93))
(assert (>= n40 n94))
(declare-fun n95 () Int)
(assert (= n95 (* n16 n18)))
(declare-fun n96 () Int)
(assert (= n96 (+ n15 n95)))
(declare-fun n97 () Int)
(assert (= n97 (* n16 n19)))
(declare-fun n98 () Int)
(assert (= n98 (* n55 n15)))
(declare-fun n99 () Int)
(assert (= n99 (+ n54 n98)))
(declare-fun n100 () Int)
(assert (= n100 (* n55 n16)))
(assert (>= n96 n99))
(assert (>= n97 n100))
(declare-fun n101 () Int)
(assert (= n101 (* n43 n4)))
(declare-fun n102 () Int)
(assert (= n102 (+ n42 n101)))
(declare-fun n103 () Int)
(assert (= n103 (* n43 n5)))
(declare-fun n104 () Int)
(assert (= n104 (* n10 n33)))
(declare-fun n105 () Int)
(assert (= n105 (+ n9 n104)))
(declare-fun n106 () Int)
(assert (= n106 (* n10 n34)))
(assert (>= n102 n105))
(assert (>= n103 n106))
(assert (or (> n66 n69) (> n48 n72) (> n48 n75)))
(assert (<= n0 10))
(assert (<= n1 10))
(assert (<= 0 n10))
(assert (<= n10 10))
(assert (<= 0 n100))
(assert (<= n100 10))
(assert (<= 0 n101))
(assert (<= n101 10))
(assert (<= 0 n102))
(assert (<= n102 10))
(assert (<= 0 n103))
(assert (<= n103 10))
(assert (<= 0 n104))
(assert (<= n104 10))
(assert (<= 0 n105))
(assert (<= n105 10))
(assert (<= 0 n106))
(assert (<= n106 10))
(assert (<= 0 n11))
(assert (<= n11 10))
(assert (<= 0 n12))
(assert (<= n12 10))
(assert (<= 0 n13))
(assert (<= n13 10))
(assert (<= 0 n14))
(assert (<= n14 10))
(assert (<= 0 n15))
(assert (<= n15 10))
(assert (<= 0 n16))
(assert (<= n16 10))
(assert (<= 0 n17))
(assert (<= n17 10))
(assert (<= 0 n18))
(assert (<= n18 10))
(assert (<= 0 n19))
(assert (<= n19 10))
(assert (<= n2 10))
(assert (<= 0 n20))
(assert (<= n20 10))
(assert (<= 0 n21))
(assert (<= n21 10))
(assert (<= 0 n22))
(assert (<= n22 10))
(assert (<= 0 n23))
(assert (<= n23 10))
(assert (<= 0 n24))
(assert (<= n24 10))
(assert (<= 0 n25))
(assert (<= n25 10))
(assert (<= 0 n26))
(assert (<= n26 10))
(assert (<= 0 n27))
(assert (<= n27 10))
(assert (<= 0 n28))
(assert (<= n28 10))
(assert (<= 0 n29))
(assert (<= n29 10))
(assert (<= n3 10))
(assert (<= 0 n30))
(assert (<= n30 10))
(assert (<= 0 n31))
(assert (<= n31 10))
(assert (<= 0 n32))
(assert (<= n32 10))
(assert (<= 0 n33))
(assert (<= n33 10))
(assert (<= 0 n34))
(assert (<= n34 10))
(assert (<= 0 n35))
(assert (<= n35 10))
(assert (<= 0 n36))
(assert (<= n36 10))
(assert (<= 0 n37))
(assert (<= n37 10))
(assert (<= 0 n38))
(assert (<= n38 10))
(assert (<= 0 n39))
(assert (<= n39 10))
(assert (<= n4 10))
(assert (<= 0 n40))
(assert (<= n40 10))
(assert (<= 0 n41))
(assert (<= n41 10))
(assert (<= 0 n42))
(assert (<= n42 10))
(assert (<= 0 n43))
(assert (<= n43 10))
(assert (<= 0 n44))
(assert (<= n44 10))
(assert (<= 0 n45))
(assert (<= n45 10))
(assert (<= 0 n46))
(assert (<= n46 10))
(assert (<= 0 n47))
(assert (<= n47 10))
(assert (<= 0 n48))
(assert (<= n48 10))
(assert (<= 0 n49))
(assert (<= n49 10))
(assert (<= n5 10))
(assert (<= 0 n50))
(assert (<= n50 10))
(assert (<= 0 n51))
(assert (<= n51 10))
(assert (<= 0 n52))
(assert (<= n52 10))
(assert (<= 0 n53))
(assert (<= n53 10))
(assert (<= 0 n54))
(assert (<= n54 10))
(assert (<= 0 n55))
(assert (<= n55 10))
(assert (<= 0 n56))
(assert (<= n56 10))
(assert (<= 0 n57))
(assert (<= n57 10))
(assert (<= 0 n58))
(assert (<= n58 10))
(assert (<= 0 n59))
(assert (<= n59 10))
(assert (<= n6 10))
(assert (<= 0 n60))
(assert (<= n60 10))
(assert (<= 0 n61))
(assert (<= n61 10))
(assert (<= 0 n62))
(assert (<= n62 10))
(assert (<= 0 n63))
(assert (<= n63 10))
(assert (<= 0 n64))
(assert (<= n64 10))
(assert (<= 0 n65))
(assert (<= n65 10))
(assert (<= 0 n66))
(assert (<= n66 10))
(assert (<= 0 n67))
(assert (<= n67 10))
(assert (<= 0 n68))
(assert (<= n68 10))
(assert (<= 0 n69))
(assert (<= n69 10))
(assert (<= n7 10))
(assert (<= 0 n70))
(assert (<= n70 10))
(assert (<= 0 n71))
(assert (<= n71 10))
(assert (<= 0 n72))
(assert (<= n72 10))
(assert (<= 0 n73))
(assert (<= n73 10))
(assert (<= 0 n74))
(assert (<= n74 10))
(assert (<= 0 n75))
(assert (<= n75 10))
(assert (<= 0 n76))
(assert (<= n76 10))
(assert (<= 0 n77))
(assert (<= n77 10))
(assert (<= 0 n78))
(assert (<= n78 10))
(assert (<= 0 n79))
(assert (<= n79 10))
(assert (<= 0 n8))
(assert (<= n8 10))
(assert (<= 0 n80))
(assert (<= n80 10))
(assert (<= 0 n81))
(assert (<= n81 10))
(assert (<= 0 n82))
(assert (<= n82 10))
(assert (<= 0 n83))
(assert (<= n83 10))
(assert (<= 0 n84))
(assert (<= n84 10))
(assert (<= 0 n85))
(assert (<= n85 10))
(assert (<= 0 n86))
(assert (<= n86 10))
(assert (<= 0 n87))
(assert (<= n87 10))
(assert (<= 0 n88))
(assert (<= n88 10))
(assert (<= 0 n89))
(assert (<= n89 10))
(assert (<= 0 n9))
(assert (<= n9 10))
(assert (<= 0 n90))
(assert (<= n90 10))
(assert (<= 0 n91))
(assert (<= n91 10))
(assert (<= 0 n92))
(assert (<= n92 10))
(assert (<= 0 n93))
(assert (<= n93 10))
(assert (<= 0 n94))
(assert (<= n94 10))
(assert (<= 0 n95))
(assert (<= n95 10))
(assert (<= 0 n96))
(assert (<= n96 10))
(assert (<= 0 n97))
(assert (<= n97 10))
(assert (<= 0 n98))
(assert (<= n98 10))
(assert (<= 0 n99))
(assert (<= n99 10))
(check-sat)
(exit)
